(set-info :smt-lib-version 2.6)
(set-logic QF_NIA)
(set-info :source |
     Constraint systems stating that a matrix interpretation is
     compatible with a rewriting system (weakly compatible with
     all rules, strictly compatible with at least one).

     Contributed by Johannes Waldmann at HTKW Leipzig.
   |)
(set-info :category "crafted")
(set-info :status sat)
(declare-fun n0 () Int)
(assert (>= n0 0))
(declare-fun n1 () Int)
(assert (>= n1 0))
(declare-fun n2 () Int)
(assert (>= n2 0))
(declare-fun n3 () Int)
(assert (>= n3 0))
(declare-fun n4 () Int)
(assert (>= n4 0))
(declare-fun n5 () Int)
(assert (>= n5 0))
(assert (>= n2 1))
(declare-fun n6 () Int)
(assert (>= n6 0))
(declare-fun n7 () Int)
(assert (>= n7 0))
(declare-fun n8 () Int)
(assert (>= n8 0))
(declare-fun n9 () Int)
(assert (>= n9 0))
(declare-fun n10 () Int)
(assert (>= n10 0))
(declare-fun n11 () Int)
(assert (>= n11 0))
(assert (>= n8 1))
(declare-fun n12 () Int)
(assert (>= n12 0))
(declare-fun n13 () Int)
(assert (>= n13 0))
(declare-fun n14 () Int)
(assert (>= n14 0))
(declare-fun n15 () Int)
(assert (>= n15 0))
(declare-fun n16 () Int)
(assert (>= n16 0))
(declare-fun n17 () Int)
(assert (>= n17 0))
(assert (>= n14 1))
(declare-fun n18 () Int)
(assert (>= n18 0))
(declare-fun n19 () Int)
(assert (>= n19 0))
(declare-fun n20 () Int)
(assert (>= n20 0))
(declare-fun n21 () Int)
(assert (>= n21 0))
(declare-fun n22 () Int)
(assert (>= n22 0))
(declare-fun n23 () Int)
(assert (>= n23 0))
(assert (>= n20 1))
(declare-fun n24 () Int)
(assert (= n24 (* n2 n12)))
(declare-fun n25 () Int)
(assert (= n25 (* n3 n13)))
(declare-fun n26 () Int)
(assert (= n26 (* n4 n12)))
(declare-fun n27 () Int)
(assert (= n27 (* n5 n13)))
(declare-fun n28 () Int)
(assert (= n28 (+ n24 n25)))
(declare-fun n29 () Int)
(assert (= n29 (+ n26 n27)))
(declare-fun n30 () Int)
(assert (= n30 (+ n0 n28)))
(declare-fun n31 () Int)
(assert (= n31 (+ n1 n29)))
(declare-fun n32 () Int)
(assert (= n32 (* n2 n14)))
(declare-fun n33 () Int)
(assert (= n33 (* n3 n16)))
(declare-fun n34 () Int)
(assert (= n34 (* n2 n15)))
(declare-fun n35 () Int)
(assert (= n35 (* n3 n17)))
(declare-fun n36 () Int)
(assert (= n36 (* n4 n14)))
(declare-fun n37 () Int)
(assert (= n37 (* n5 n16)))
(declare-fun n38 () Int)
(assert (= n38 (* n4 n15)))
(declare-fun n39 () Int)
(assert (= n39 (* n5 n17)))
(declare-fun n40 () Int)
(assert (= n40 (+ n32 n33)))
(declare-fun n41 () Int)
(assert (= n41 (+ n34 n35)))
(declare-fun n42 () Int)
(assert (= n42 (+ n36 n37)))
(declare-fun n43 () Int)
(assert (= n43 (+ n38 n39)))
(declare-fun n44 () Int)
(assert (= n44 (* n8 n12)))
(declare-fun n45 () Int)
(assert (= n45 (* n9 n13)))
(declare-fun n46 () Int)
(assert (= n46 (* n10 n12)))
(declare-fun n47 () Int)
(assert (= n47 (* n11 n13)))
(declare-fun n48 () Int)
(assert (= n48 (+ n44 n45)))
(declare-fun n49 () Int)
(assert (= n49 (+ n46 n47)))
(declare-fun n50 () Int)
(assert (= n50 (+ n6 n48)))
(declare-fun n51 () Int)
(assert (= n51 (+ n7 n49)))
(declare-fun n52 () Int)
(assert (= n52 (* n8 n14)))
(declare-fun n53 () Int)
(assert (= n53 (* n9 n16)))
(declare-fun n54 () Int)
(assert (= n54 (* n8 n15)))
(declare-fun n55 () Int)
(assert (= n55 (* n9 n17)))
(declare-fun n56 () Int)
(assert (= n56 (* n10 n14)))
(declare-fun n57 () Int)
(assert (= n57 (* n11 n16)))
(declare-fun n58 () Int)
(assert (= n58 (* n10 n15)))
(declare-fun n59 () Int)
(assert (= n59 (* n11 n17)))
(declare-fun n60 () Int)
(assert (= n60 (+ n52 n53)))
(declare-fun n61 () Int)
(assert (= n61 (+ n54 n55)))
(declare-fun n62 () Int)
(assert (= n62 (+ n56 n57)))
(declare-fun n63 () Int)
(assert (= n63 (+ n58 n59)))
(declare-fun n64 () Int)
(assert (= n64 (* n20 n0)))
(declare-fun n65 () Int)
(assert (= n65 (* n21 n1)))
(declare-fun n66 () Int)
(assert (= n66 (* n22 n0)))
(declare-fun n67 () Int)
(assert (= n67 (* n23 n1)))
(declare-fun n68 () Int)
(assert (= n68 (+ n64 n65)))
(declare-fun n69 () Int)
(assert (= n69 (+ n66 n67)))
(declare-fun n70 () Int)
(assert (= n70 (+ n18 n68)))
(declare-fun n71 () Int)
(assert (= n71 (+ n19 n69)))
(declare-fun n72 () Int)
(assert (= n72 (* n20 n2)))
(declare-fun n73 () Int)
(assert (= n73 (* n21 n4)))
(declare-fun n74 () Int)
(assert (= n74 (* n20 n3)))
(declare-fun n75 () Int)
(assert (= n75 (* n21 n5)))
(declare-fun n76 () Int)
(assert (= n76 (* n22 n2)))
(declare-fun n77 () Int)
(assert (= n77 (* n23 n4)))
(declare-fun n78 () Int)
(assert (= n78 (* n22 n3)))
(declare-fun n79 () Int)
(assert (= n79 (* n23 n5)))
(declare-fun n80 () Int)
(assert (= n80 (+ n72 n73)))
(declare-fun n81 () Int)
(assert (= n81 (+ n74 n75)))
(declare-fun n82 () Int)
(assert (= n82 (+ n76 n77)))
(declare-fun n83 () Int)
(assert (= n83 (+ n78 n79)))
(declare-fun n84 () Int)
(assert (= n84 (* n8 n0)))
(declare-fun n85 () Int)
(assert (= n85 (* n9 n1)))
(declare-fun n86 () Int)
(assert (= n86 (* n10 n0)))
(declare-fun n87 () Int)
(assert (= n87 (* n11 n1)))
(declare-fun n88 () Int)
(assert (= n88 (+ n84 n85)))
(declare-fun n89 () Int)
(assert (= n89 (+ n86 n87)))
(declare-fun n90 () Int)
(assert (= n90 (+ n6 n88)))
(declare-fun n91 () Int)
(assert (= n91 (+ n7 n89)))
(declare-fun n92 () Int)
(assert (= n92 (* n8 n2)))
(declare-fun n93 () Int)
(assert (= n93 (* n9 n4)))
(declare-fun n94 () Int)
(assert (= n94 (* n8 n3)))
(declare-fun n95 () Int)
(assert (= n95 (* n9 n5)))
(declare-fun n96 () Int)
(assert (= n96 (* n10 n2)))
(declare-fun n97 () Int)
(assert (= n97 (* n11 n4)))
(declare-fun n98 () Int)
(assert (= n98 (* n10 n3)))
(declare-fun n99 () Int)
(assert (= n99 (* n11 n5)))
(declare-fun n100 () Int)
(assert (= n100 (+ n92 n93)))
(declare-fun n101 () Int)
(assert (= n101 (+ n94 n95)))
(declare-fun n102 () Int)
(assert (= n102 (+ n96 n97)))
(declare-fun n103 () Int)
(assert (= n103 (+ n98 n99)))
(declare-fun n104 () Int)
(assert (= n104 (* n14 n50)))
(declare-fun n105 () Int)
(assert (= n105 (* n15 n51)))
(declare-fun n106 () Int)
(assert (= n106 (* n16 n50)))
(declare-fun n107 () Int)
(assert (= n107 (* n17 n51)))
(declare-fun n108 () Int)
(assert (= n108 (+ n104 n105)))
(declare-fun n109 () Int)
(assert (= n109 (+ n106 n107)))
(declare-fun n110 () Int)
(assert (= n110 (+ n12 n108)))
(declare-fun n111 () Int)
(assert (= n111 (+ n13 n109)))
(declare-fun n112 () Int)
(assert (= n112 (* n14 n60)))
(declare-fun n113 () Int)
(assert (= n113 (* n15 n62)))
(declare-fun n114 () Int)
(assert (= n114 (* n14 n61)))
(declare-fun n115 () Int)
(assert (= n115 (* n15 n63)))
(declare-fun n116 () Int)
(assert (= n116 (* n16 n60)))
(declare-fun n117 () Int)
(assert (= n117 (* n17 n62)))
(declare-fun n118 () Int)
(assert (= n118 (* n16 n61)))
(declare-fun n119 () Int)
(assert (= n119 (* n17 n63)))
(declare-fun n120 () Int)
(assert (= n120 (+ n112 n113)))
(declare-fun n121 () Int)
(assert (= n121 (+ n114 n115)))
(declare-fun n122 () Int)
(assert (= n122 (+ n116 n117)))
(declare-fun n123 () Int)
(assert (= n123 (+ n118 n119)))
(declare-fun n124 () Int)
(assert (= n124 (* n40 n50)))
(declare-fun n125 () Int)
(assert (= n125 (* n41 n51)))
(declare-fun n126 () Int)
(assert (= n126 (* n42 n50)))
(declare-fun n127 () Int)
(assert (= n127 (* n43 n51)))
(declare-fun n128 () Int)
(assert (= n128 (+ n124 n125)))
(declare-fun n129 () Int)
(assert (= n129 (+ n126 n127)))
(declare-fun n130 () Int)
(assert (= n130 (+ n30 n128)))
(declare-fun n131 () Int)
(assert (= n131 (+ n31 n129)))
(declare-fun n132 () Int)
(assert (= n132 (* n40 n60)))
(declare-fun n133 () Int)
(assert (= n133 (* n41 n62)))
(declare-fun n134 () Int)
(assert (= n134 (* n40 n61)))
(declare-fun n135 () Int)
(assert (= n135 (* n41 n63)))
(declare-fun n136 () Int)
(assert (= n136 (* n42 n60)))
(declare-fun n137 () Int)
(assert (= n137 (* n43 n62)))
(declare-fun n138 () Int)
(assert (= n138 (* n42 n61)))
(declare-fun n139 () Int)
(assert (= n139 (* n43 n63)))
(declare-fun n140 () Int)
(assert (= n140 (+ n132 n133)))
(declare-fun n141 () Int)
(assert (= n141 (+ n134 n135)))
(declare-fun n142 () Int)
(assert (= n142 (+ n136 n137)))
(declare-fun n143 () Int)
(assert (= n143 (+ n138 n139)))
(assert (>= n30 n0))
(assert (>= n31 n1))
(assert (>= n40 n2))
(assert (>= n41 n3))
(assert (>= n42 n4))
(assert (>= n43 n5))
(declare-fun n144 () Int)
(assert (= n144 (* n140 n18)))
(declare-fun n145 () Int)
(assert (= n145 (* n141 n19)))
(declare-fun n146 () Int)
(assert (= n146 (* n142 n18)))
(declare-fun n147 () Int)
(assert (= n147 (* n143 n19)))
(declare-fun n148 () Int)
(assert (= n148 (+ n144 n145)))
(declare-fun n149 () Int)
(assert (= n149 (+ n146 n147)))
(declare-fun n150 () Int)
(assert (= n150 (+ n130 n148)))
(declare-fun n151 () Int)
(assert (= n151 (+ n131 n149)))
(declare-fun n152 () Int)
(assert (= n152 (* n140 n20)))
(declare-fun n153 () Int)
(assert (= n153 (* n141 n22)))
(declare-fun n154 () Int)
(assert (= n154 (* n140 n21)))
(declare-fun n155 () Int)
(assert (= n155 (* n141 n23)))
(declare-fun n156 () Int)
(assert (= n156 (* n142 n20)))
(declare-fun n157 () Int)
(assert (= n157 (* n143 n22)))
(declare-fun n158 () Int)
(assert (= n158 (* n142 n21)))
(declare-fun n159 () Int)
(assert (= n159 (* n143 n23)))
(declare-fun n160 () Int)
(assert (= n160 (+ n152 n153)))
(declare-fun n161 () Int)
(assert (= n161 (+ n154 n155)))
(declare-fun n162 () Int)
(assert (= n162 (+ n156 n157)))
(declare-fun n163 () Int)
(assert (= n163 (+ n158 n159)))
(assert (>= n70 n150))
(assert (>= n71 n151))
(assert (>= n80 n160))
(assert (>= n81 n161))
(assert (>= n82 n162))
(assert (>= n83 n163))
(declare-fun n164 () Int)
(assert (= n164 (* n120 n12)))
(declare-fun n165 () Int)
(assert (= n165 (* n121 n13)))
(declare-fun n166 () Int)
(assert (= n166 (* n122 n12)))
(declare-fun n167 () Int)
(assert (= n167 (* n123 n13)))
(declare-fun n168 () Int)
(assert (= n168 (+ n164 n165)))
(declare-fun n169 () Int)
(assert (= n169 (+ n166 n167)))
(declare-fun n170 () Int)
(assert (= n170 (+ n110 n168)))
(declare-fun n171 () Int)
(assert (= n171 (+ n111 n169)))
(declare-fun n172 () Int)
(assert (= n172 (* n120 n14)))
(declare-fun n173 () Int)
(assert (= n173 (* n121 n16)))
(declare-fun n174 () Int)
(assert (= n174 (* n120 n15)))
(declare-fun n175 () Int)
(assert (= n175 (* n121 n17)))
(declare-fun n176 () Int)
(assert (= n176 (* n122 n14)))
(declare-fun n177 () Int)
(assert (= n177 (* n123 n16)))
(declare-fun n178 () Int)
(assert (= n178 (* n122 n15)))
(declare-fun n179 () Int)
(assert (= n179 (* n123 n17)))
(declare-fun n180 () Int)
(assert (= n180 (+ n172 n173)))
(declare-fun n181 () Int)
(assert (= n181 (+ n174 n175)))
(declare-fun n182 () Int)
(assert (= n182 (+ n176 n177)))
(declare-fun n183 () Int)
(assert (= n183 (+ n178 n179)))
(assert (>= n130 n170))
(assert (>= n131 n171))
(assert (>= n140 n180))
(assert (>= n141 n181))
(assert (>= n142 n182))
(assert (>= n143 n183))
(declare-fun n184 () Int)
(assert (= n184 (* n100 n0)))
(declare-fun n185 () Int)
(assert (= n185 (* n101 n1)))
(declare-fun n186 () Int)
(assert (= n186 (* n102 n0)))
(declare-fun n187 () Int)
(assert (= n187 (* n103 n1)))
(declare-fun n188 () Int)
(assert (= n188 (+ n184 n185)))
(declare-fun n189 () Int)
(assert (= n189 (+ n186 n187)))
(declare-fun n190 () Int)
(assert (= n190 (+ n90 n188)))
(declare-fun n191 () Int)
(assert (= n191 (+ n91 n189)))
(declare-fun n192 () Int)
(assert (= n192 (* n100 n2)))
(declare-fun n193 () Int)
(assert (= n193 (* n101 n4)))
(declare-fun n194 () Int)
(assert (= n194 (* n100 n3)))
(declare-fun n195 () Int)
(assert (= n195 (* n101 n5)))
(declare-fun n196 () Int)
(assert (= n196 (* n102 n2)))
(declare-fun n197 () Int)
(assert (= n197 (* n103 n4)))
(declare-fun n198 () Int)
(assert (= n198 (* n102 n3)))
(declare-fun n199 () Int)
(assert (= n199 (* n103 n5)))
(declare-fun n200 () Int)
(assert (= n200 (+ n192 n193)))
(declare-fun n201 () Int)
(assert (= n201 (+ n194 n195)))
(declare-fun n202 () Int)
(assert (= n202 (+ n196 n197)))
(declare-fun n203 () Int)
(assert (= n203 (+ n198 n199)))
(assert (>= n12 n190))
(assert (>= n13 n191))
(assert (>= n14 n200))
(assert (>= n15 n201))
(assert (>= n16 n202))
(assert (>= n17 n203))
(declare-fun n204 () Int)
(assert (= n204 (* n20 n12)))
(declare-fun n205 () Int)
(assert (= n205 (* n21 n13)))
(declare-fun n206 () Int)
(assert (= n206 (* n22 n12)))
(declare-fun n207 () Int)
(assert (= n207 (* n23 n13)))
(declare-fun n208 () Int)
(assert (= n208 (+ n204 n205)))
(declare-fun n209 () Int)
(assert (= n209 (+ n206 n207)))
(declare-fun n210 () Int)
(assert (= n210 (+ n18 n208)))
(declare-fun n211 () Int)
(assert (= n211 (+ n19 n209)))
(declare-fun n212 () Int)
(assert (= n212 (* n20 n14)))
(declare-fun n213 () Int)
(assert (= n213 (* n21 n16)))
(declare-fun n214 () Int)
(assert (= n214 (* n20 n15)))
(declare-fun n215 () Int)
(assert (= n215 (* n21 n17)))
(declare-fun n216 () Int)
(assert (= n216 (* n22 n14)))
(declare-fun n217 () Int)
(assert (= n217 (* n23 n16)))
(declare-fun n218 () Int)
(assert (= n218 (* n22 n15)))
(declare-fun n219 () Int)
(assert (= n219 (* n23 n17)))
(declare-fun n220 () Int)
(assert (= n220 (+ n212 n213)))
(declare-fun n221 () Int)
(assert (= n221 (+ n214 n215)))
(declare-fun n222 () Int)
(assert (= n222 (+ n216 n217)))
(declare-fun n223 () Int)
(assert (= n223 (+ n218 n219)))
(declare-fun n224 () Int)
(assert (= n224 (* n40 n70)))
(declare-fun n225 () Int)
(assert (= n225 (* n41 n71)))
(declare-fun n226 () Int)
(assert (= n226 (* n42 n70)))
(declare-fun n227 () Int)
(assert (= n227 (* n43 n71)))
(declare-fun n228 () Int)
(assert (= n228 (+ n224 n225)))
(declare-fun n229 () Int)
(assert (= n229 (+ n226 n227)))
(declare-fun n230 () Int)
(assert (= n230 (+ n30 n228)))
(declare-fun n231 () Int)
(assert (= n231 (+ n31 n229)))
(declare-fun n232 () Int)
(assert (= n232 (* n40 n80)))
(declare-fun n233 () Int)
(assert (= n233 (* n41 n82)))
(declare-fun n234 () Int)
(assert (= n234 (* n40 n81)))
(declare-fun n235 () Int)
(assert (= n235 (* n41 n83)))
(declare-fun n236 () Int)
(assert (= n236 (* n42 n80)))
(declare-fun n237 () Int)
(assert (= n237 (* n43 n82)))
(declare-fun n238 () Int)
(assert (= n238 (* n42 n81)))
(declare-fun n239 () Int)
(assert (= n239 (* n43 n83)))
(declare-fun n240 () Int)
(assert (= n240 (+ n232 n233)))
(declare-fun n241 () Int)
(assert (= n241 (+ n234 n235)))
(declare-fun n242 () Int)
(assert (= n242 (+ n236 n237)))
(declare-fun n243 () Int)
(assert (= n243 (+ n238 n239)))
(assert (>= n210 n230))
(assert (>= n211 n231))
(assert (>= n220 n240))
(assert (>= n221 n241))
(assert (>= n222 n242))
(assert (>= n223 n243))
(assert (or (> n30 n0) (> n70 n150) (> n130 n170) (> n12 n190) (> n210 n230)))
(assert (<= n0 10))
(assert (<= n1 10))
(assert (<= n10 10))
(assert (<= 0 n100))
(assert (<= n100 10))
(assert (<= 0 n101))
(assert (<= n101 10))
(assert (<= 0 n102))
(assert (<= n102 10))
(assert (<= 0 n103))
(assert (<= n103 10))
(assert (<= 0 n104))
(assert (<= n104 10))
(assert (<= 0 n105))
(assert (<= n105 10))
(assert (<= 0 n106))
(assert (<= n106 10))
(assert (<= 0 n107))
(assert (<= n107 10))
(assert (<= 0 n108))
(assert (<= n108 10))
(assert (<= 0 n109))
(assert (<= n109 10))
(assert (<= n11 10))
(assert (<= 0 n110))
(assert (<= n110 10))
(assert (<= 0 n111))
(assert (<= n111 10))
(assert (<= 0 n112))
(assert (<= n112 10))
(assert (<= 0 n113))
(assert (<= n113 10))
(assert (<= 0 n114))
(assert (<= n114 10))
(assert (<= 0 n115))
(assert (<= n115 10))
(assert (<= 0 n116))
(assert (<= n116 10))
(assert (<= 0 n117))
(assert (<= n117 10))
(assert (<= 0 n118))
(assert (<= n118 10))
(assert (<= 0 n119))
(assert (<= n119 10))
(assert (<= n12 10))
(assert (<= 0 n120))
(assert (<= n120 10))
(assert (<= 0 n121))
(assert (<= n121 10))
(assert (<= 0 n122))
(assert (<= n122 10))
(assert (<= 0 n123))
(assert (<= n123 10))
(assert (<= 0 n124))
(assert (<= n124 10))
(assert (<= 0 n125))
(assert (<= n125 10))
(assert (<= 0 n126))
(assert (<= n126 10))
(assert (<= 0 n127))
(assert (<= n127 10))
(assert (<= 0 n128))
(assert (<= n128 10))
(assert (<= 0 n129))
(assert (<= n129 10))
(assert (<= n13 10))
(assert (<= 0 n130))
(assert (<= n130 10))
(assert (<= 0 n131))
(assert (<= n131 10))
(assert (<= 0 n132))
(assert (<= n132 10))
(assert (<= 0 n133))
(assert (<= n133 10))
(assert (<= 0 n134))
(assert (<= n134 10))
(assert (<= 0 n135))
(assert (<= n135 10))
(assert (<= 0 n136))
(assert (<= n136 10))
(assert (<= 0 n137))
(assert (<= n137 10))
(assert (<= 0 n138))
(assert (<= n138 10))
(assert (<= 0 n139))
(assert (<= n139 10))
(assert (<= n14 10))
(assert (<= 0 n140))
(assert (<= n140 10))
(assert (<= 0 n141))
(assert (<= n141 10))
(assert (<= 0 n142))
(assert (<= n142 10))
(assert (<= 0 n143))
(assert (<= n143 10))
(assert (<= 0 n144))
(assert (<= n144 10))
(assert (<= 0 n145))
(assert (<= n145 10))
(assert (<= 0 n146))
(assert (<= n146 10))
(assert (<= 0 n147))
(assert (<= n147 10))
(assert (<= 0 n148))
(assert (<= n148 10))
(assert (<= 0 n149))
(assert (<= n149 10))
(assert (<= n15 10))
(assert (<= 0 n150))
(assert (<= n150 10))
(assert (<= 0 n151))
(assert (<= n151 10))
(assert (<= 0 n152))
(assert (<= n152 10))
(assert (<= 0 n153))
(assert (<= n153 10))
(assert (<= 0 n154))
(assert (<= n154 10))
(assert (<= 0 n155))
(assert (<= n155 10))
(assert (<= 0 n156))
(assert (<= n156 10))
(assert (<= 0 n157))
(assert (<= n157 10))
(assert (<= 0 n158))
(assert (<= n158 10))
(assert (<= 0 n159))
(assert (<= n159 10))
(assert (<= n16 10))
(assert (<= 0 n160))
(assert (<= n160 10))
(assert (<= 0 n161))
(assert (<= n161 10))
(assert (<= 0 n162))
(assert (<= n162 10))
(assert (<= 0 n163))
(assert (<= n163 10))
(assert (<= 0 n164))
(assert (<= n164 10))
(assert (<= 0 n165))
(assert (<= n165 10))
(assert (<= 0 n166))
(assert (<= n166 10))
(assert (<= 0 n167))
(assert (<= n167 10))
(assert (<= 0 n168))
(assert (<= n168 10))
(assert (<= 0 n169))
(assert (<= n169 10))
(assert (<= n17 10))
(assert (<= 0 n170))
(assert (<= n170 10))
(assert (<= 0 n171))
(assert (<= n171 10))
(assert (<= 0 n172))
(assert (<= n172 10))
(assert (<= 0 n173))
(assert (<= n173 10))
(assert (<= 0 n174))
(assert (<= n174 10))
(assert (<= 0 n175))
(assert (<= n175 10))
(assert (<= 0 n176))
(assert (<= n176 10))
(assert (<= 0 n177))
(assert (<= n177 10))
(assert (<= 0 n178))
(assert (<= n178 10))
(assert (<= 0 n179))
(assert (<= n179 10))
(assert (<= n18 10))
(assert (<= 0 n180))
(assert (<= n180 10))
(assert (<= 0 n181))
(assert (<= n181 10))
(assert (<= 0 n182))
(assert (<= n182 10))
(assert (<= 0 n183))
(assert (<= n183 10))
(assert (<= 0 n184))
(assert (<= n184 10))
(assert (<= 0 n185))
(assert (<= n185 10))
(assert (<= 0 n186))
(assert (<= n186 10))
(assert (<= 0 n187))
(assert (<= n187 10))
(assert (<= 0 n188))
(assert (<= n188 10))
(assert (<= 0 n189))
(assert (<= n189 10))
(assert (<= n19 10))
(assert (<= 0 n190))
(assert (<= n190 10))
(assert (<= 0 n191))
(assert (<= n191 10))
(assert (<= 0 n192))
(assert (<= n192 10))
(assert (<= 0 n193))
(assert (<= n193 10))
(assert (<= 0 n194))
(assert (<= n194 10))
(assert (<= 0 n195))
(assert (<= n195 10))
(assert (<= 0 n196))
(assert (<= n196 10))
(assert (<= 0 n197))
(assert (<= n197 10))
(assert (<= 0 n198))
(assert (<= n198 10))
(assert (<= 0 n199))
(assert (<= n199 10))
(assert (<= n2 10))
(assert (<= n20 10))
(assert (<= 0 n200))
(assert (<= n200 10))
(assert (<= 0 n201))
(assert (<= n201 10))
(assert (<= 0 n202))
(assert (<= n202 10))
(assert (<= 0 n203))
(assert (<= n203 10))
(assert (<= 0 n204))
(assert (<= n204 10))
(assert (<= 0 n205))
(assert (<= n205 10))
(assert (<= 0 n206))
(assert (<= n206 10))
(assert (<= 0 n207))
(assert (<= n207 10))
(assert (<= 0 n208))
(assert (<= n208 10))
(assert (<= 0 n209))
(assert (<= n209 10))
(assert (<= n21 10))
(assert (<= 0 n210))
(assert (<= n210 10))
(assert (<= 0 n211))
(assert (<= n211 10))
(assert (<= 0 n212))
(assert (<= n212 10))
(assert (<= 0 n213))
(assert (<= n213 10))
(assert (<= 0 n214))
(assert (<= n214 10))
(assert (<= 0 n215))
(assert (<= n215 10))
(assert (<= 0 n216))
(assert (<= n216 10))
(assert (<= 0 n217))
(assert (<= n217 10))
(assert (<= 0 n218))
(assert (<= n218 10))
(assert (<= 0 n219))
(assert (<= n219 10))
(assert (<= n22 10))
(assert (<= 0 n220))
(assert (<= n220 10))
(assert (<= 0 n221))
(assert (<= n221 10))
(assert (<= 0 n222))
(assert (<= n222 10))
(assert (<= 0 n223))
(assert (<= n223 10))
(assert (<= 0 n224))
(assert (<= n224 10))
(assert (<= 0 n225))
(assert (<= n225 10))
(assert (<= 0 n226))
(assert (<= n226 10))
(assert (<= 0 n227))
(assert (<= n227 10))
(assert (<= 0 n228))
(assert (<= n228 10))
(assert (<= 0 n229))
(assert (<= n229 10))
(assert (<= n23 10))
(assert (<= 0 n230))
(assert (<= n230 10))
(assert (<= 0 n231))
(assert (<= n231 10))
(assert (<= 0 n232))
(assert (<= n232 10))
(assert (<= 0 n233))
(assert (<= n233 10))
(assert (<= 0 n234))
(assert (<= n234 10))
(assert (<= 0 n235))
(assert (<= n235 10))
(assert (<= 0 n236))
(assert (<= n236 10))
(assert (<= 0 n237))
(assert (<= n237 10))
(assert (<= 0 n238))
(assert (<= n238 10))
(assert (<= 0 n239))
(assert (<= n239 10))
(assert (<= 0 n24))
(assert (<= n24 10))
(assert (<= 0 n240))
(assert (<= n240 10))
(assert (<= 0 n241))
(assert (<= n241 10))
(assert (<= 0 n242))
(assert (<= n242 10))
(assert (<= 0 n243))
(assert (<= n243 10))
(assert (<= 0 n25))
(assert (<= n25 10))
(assert (<= 0 n26))
(assert (<= n26 10))
(assert (<= 0 n27))
(assert (<= n27 10))
(assert (<= 0 n28))
(assert (<= n28 10))
(assert (<= 0 n29))
(assert (<= n29 10))
(assert (<= n3 10))
(assert (<= 0 n30))
(assert (<= n30 10))
(assert (<= 0 n31))
(assert (<= n31 10))
(assert (<= 0 n32))
(assert (<= n32 10))
(assert (<= 0 n33))
(assert (<= n33 10))
(assert (<= 0 n34))
(assert (<= n34 10))
(assert (<= 0 n35))
(assert (<= n35 10))
(assert (<= 0 n36))
(assert (<= n36 10))
(assert (<= 0 n37))
(assert (<= n37 10))
(assert (<= 0 n38))
(assert (<= n38 10))
(assert (<= 0 n39))
(assert (<= n39 10))
(assert (<= n4 10))
(assert (<= 0 n40))
(assert (<= n40 10))
(assert (<= 0 n41))
(assert (<= n41 10))
(assert (<= 0 n42))
(assert (<= n42 10))
(assert (<= 0 n43))
(assert (<= n43 10))
(assert (<= 0 n44))
(assert (<= n44 10))
(assert (<= 0 n45))
(assert (<= n45 10))
(assert (<= 0 n46))
(assert (<= n46 10))
(assert (<= 0 n47))
(assert (<= n47 10))
(assert (<= 0 n48))
(assert (<= n48 10))
(assert (<= 0 n49))
(assert (<= n49 10))
(assert (<= n5 10))
(assert (<= 0 n50))
(assert (<= n50 10))
(assert (<= 0 n51))
(assert (<= n51 10))
(assert (<= 0 n52))
(assert (<= n52 10))
(assert (<= 0 n53))
(assert (<= n53 10))
(assert (<= 0 n54))
(assert (<= n54 10))
(assert (<= 0 n55))
(assert (<= n55 10))
(assert (<= 0 n56))
(assert (<= n56 10))
(assert (<= 0 n57))
(assert (<= n57 10))
(assert (<= 0 n58))
(assert (<= n58 10))
(assert (<= 0 n59))
(assert (<= n59 10))
(assert (<= n6 10))
(assert (<= 0 n60))
(assert (<= n60 10))
(assert (<= 0 n61))
(assert (<= n61 10))
(assert (<= 0 n62))
(assert (<= n62 10))
(assert (<= 0 n63))
(assert (<= n63 10))
(assert (<= 0 n64))
(assert (<= n64 10))
(assert (<= 0 n65))
(assert (<= n65 10))
(assert (<= 0 n66))
(assert (<= n66 10))
(assert (<= 0 n67))
(assert (<= n67 10))
(assert (<= 0 n68))
(assert (<= n68 10))
(assert (<= 0 n69))
(assert (<= n69 10))
(assert (<= n7 10))
(assert (<= 0 n70))
(assert (<= n70 10))
(assert (<= 0 n71))
(assert (<= n71 10))
(assert (<= 0 n72))
(assert (<= n72 10))
(assert (<= 0 n73))
(assert (<= n73 10))
(assert (<= 0 n74))
(assert (<= n74 10))
(assert (<= 0 n75))
(assert (<= n75 10))
(assert (<= 0 n76))
(assert (<= n76 10))
(assert (<= 0 n77))
(assert (<= n77 10))
(assert (<= 0 n78))
(assert (<= n78 10))
(assert (<= 0 n79))
(assert (<= n79 10))
(assert (<= n8 10))
(assert (<= 0 n80))
(assert (<= n80 10))
(assert (<= 0 n81))
(assert (<= n81 10))
(assert (<= 0 n82))
(assert (<= n82 10))
(assert (<= 0 n83))
(assert (<= n83 10))
(assert (<= 0 n84))
(assert (<= n84 10))
(assert (<= 0 n85))
(assert (<= n85 10))
(assert (<= 0 n86))
(assert (<= n86 10))
(assert (<= 0 n87))
(assert (<= n87 10))
(assert (<= 0 n88))
(assert (<= n88 10))
(assert (<= 0 n89))
(assert (<= n89 10))
(assert (<= n9 10))
(assert (<= 0 n90))
(assert (<= n90 10))
(assert (<= 0 n91))
(assert (<= n91 10))
(assert (<= 0 n92))
(assert (<= n92 10))
(assert (<= 0 n93))
(assert (<= n93 10))
(assert (<= 0 n94))
(assert (<= n94 10))
(assert (<= 0 n95))
(assert (<= n95 10))
(assert (<= 0 n96))
(assert (<= n96 10))
(assert (<= 0 n97))
(assert (<= n97 10))
(assert (<= 0 n98))
(assert (<= n98 10))
(assert (<= 0 n99))
(assert (<= n99 10))
(check-sat)
(exit)
